GLPSOL--GLPK LP/MIP Solver 5.0
Parameter(s) specified in the command line:
 --lp ../modeles/3_264.lp --log 3_264.log
Reading problem data from '../modeles/3_264.lp'...
805 rows, 1590 columns, 5553 non-zeros
792 integer variables, all of which are binary
2404 lines were read
GLPK Integer Optimizer 5.0
805 rows, 1590 columns, 5553 non-zeros
792 integer variables, all of which are binary
Preprocessing...
786 constraint coefficient(s) were reduced
805 rows, 1587 columns, 5550 non-zeros
792 integer variables, all of which are binary
Scaling...
 A: min|aij| =  2.296e-04  max|aij| =  4.000e+00  ratio =  1.742e+04
GM: min|aij| =  8.704e-02  max|aij| =  1.149e+01  ratio =  1.320e+02
EQ: min|aij| =  7.576e-03  max|aij| =  1.000e+00  ratio =  1.320e+02
2N: min|aij| =  3.673e-03  max|aij| =  1.708e+00  ratio =  4.650e+02
Constructing initial basis...
Size of triangular part is 805
Solving LP relaxation...
GLPK Simplex Optimizer 5.0
805 rows, 1587 columns, 5550 non-zeros
      0: obj =   6.000000000e+00 inf =   1.205e+02 (7)
     62: obj =   4.367017765e-01 inf =   0.000e+00 (0)
*   178: obj =  -1.731995277e+00 inf =   4.880e-15 (0)
OPTIMAL LP SOLUTION FOUND
Integer optimization begins...
Long-step dual simplex will be used
+   178: mip =     not found yet >=              -inf        (1; 0)
+   182: >>>>>  -1.731995277e+00 >=  -1.731995277e+00 < 0.1% (5; 0)
+   182: mip =  -1.731995277e+00 >=     tree is empty   0.0% (0; 9)
INTEGER OPTIMAL SOLUTION FOUND
Time used:   0.1 secs
Memory used: 2.3 Mb (2450611 bytes)
